TITL PA in P-1 #2
REM 0kbar_full_experimental.res created by SHELXL-2016/6 at 15:11 on 19-Jun-2019
REM by Daniel Tcho≈Ñ and Anna Makal: https://doi.org/10.1107/s2052520619003354
CELL 0.71073 6.927152 8.333602 10.470634 109.8984 98.979 100.7733
ZERR 2 0.000153 0.000212 0.000248 0.0022 0.0019 0.002
LATT 1
SFAC C H O
UNIT 34 20 2

L.S. 5
PLAN  20 0 0
fmap 2
acta
REM <olex2.extras>
REM <HklSrc "%./PA.hkl">
REM </olex2.extras>

WGHT    0.081900    0.075500
FVAR       8.83439
C1    1    0.207494   -0.188570   -0.192829    11.00000    0.01627    0.01694 =
         0.01290    0.00324    0.00476    0.00459
C2    1    0.211179   -0.155611   -0.050239    11.00000    0.01335    0.01284 =
         0.01334    0.00360    0.00388    0.00313
C3    1    0.172787   -0.293107    0.003244    11.00000    0.01811    0.01250 =
         0.01761    0.00472    0.00440    0.00275
AFIX  43
H3    2    0.145736   -0.410467   -0.057124    11.00000   -1.20000
AFIX   0
C4    1    0.175393   -0.254305    0.140678    11.00000    0.02050    0.01507 =
         0.01845    0.00821    0.00475    0.00322
AFIX  43
H4    2    0.150025   -0.346062    0.172254    11.00000   -1.20000
AFIX   0
C5    1    0.216083   -0.076240    0.237961    11.00000    0.01756    0.01658 =
         0.01429    0.00701    0.00407    0.00370
C6    1    0.213425   -0.035753    0.378986    11.00000    0.03048    0.02461 =
         0.01541    0.01022    0.00620    0.00587
AFIX  43
H6    2    0.186206   -0.126442    0.411528    11.00000   -1.20000
AFIX   0
C7    1    0.251069    0.138539    0.470517    11.00000    0.03615    0.02812 =
         0.01280    0.00688    0.00655    0.00727
AFIX  43
H7    2    0.246984    0.163707    0.563522    11.00000   -1.20000
AFIX   0
C8    1    0.294907    0.275801    0.423675    11.00000    0.02669    0.02105 =
         0.01273    0.00206    0.00319    0.00604
AFIX  43
H8    2    0.321146    0.392086    0.486041    11.00000   -1.20000
AFIX   0
C9    1    0.299933    0.240779    0.283834    11.00000    0.01700    0.01493 =
         0.01301    0.00300    0.00225    0.00426
C10   1    0.342748    0.379717    0.232685    11.00000    0.02096    0.01310 =
         0.01790    0.00332    0.00253    0.00426
AFIX  43
H10   2    0.370916    0.496711    0.294063    11.00000   -1.20000
AFIX   0
C11   1    0.342749    0.342998    0.096308    11.00000    0.02048    0.01333 =
         0.01973    0.00693    0.00417    0.00412
AFIX  43
H11   2    0.371778    0.435443    0.065858    11.00000   -1.20000
AFIX   0
C12   1    0.298862    0.164335   -0.002151    11.00000    0.01486    0.01406 =
         0.01473    0.00614    0.00373    0.00384
C13   1    0.296572    0.126601   -0.143266    11.00000    0.02095    0.01933 =
         0.01598    0.00932    0.00574    0.00520
AFIX  43
H13   2    0.324707    0.218121   -0.174819    11.00000   -1.20000
AFIX   0
C14   1    0.252389   -0.047075   -0.235855    11.00000    0.02122    0.02215 =
         0.01337    0.00684    0.00587    0.00605
AFIX  43
H14   2    0.252536   -0.070403   -0.329241    11.00000   -1.20000
AFIX   0
C15   1    0.256511    0.023077    0.044999    11.00000    0.01253    0.01255 =
         0.01217    0.00441    0.00334    0.00349
C16   1    0.258306    0.062595    0.188999    11.00000    0.01392    0.01365 =
         0.01201    0.00422    0.00296    0.00363
C17   1    0.153976   -0.364623   -0.305932    11.00000    0.02565    0.02089 =
         0.01589    0.00046    0.00729    0.00497
AFIX  43
H17   2    0.163792   -0.366210   -0.393906    11.00000   -1.20000
AFIX   0
O1    3    0.098781   -0.507716   -0.299102    11.00000    0.04711    0.01818 =
         0.02510   -0.00063    0.01472    0.00115
HKLF 4




REM  PA in P-1 #2
REM R1 =  0.0557 for    6603 Fo > 4sig(Fo)  and  0.0770 for all    9109 data
REM    163 parameters refined using      0 restraints

END  
     
WGHT      0.0818      0.0755 

REM Highest difference peak  0.901,  deepest hole -0.359,  1-sigma level  0.069
Q1    1   0.3381  0.3594  0.1645  11.00000  0.05    0.90
Q2    1   0.1709 -0.2750  0.0699  11.00000  0.05    0.68
Q3    1   0.3006  0.2593  0.3582  11.00000  0.05    0.63
Q4    1   0.2978  0.1459 -0.0712  11.00000  0.05    0.58
Q5    1   0.2715  0.2017  0.4487  11.00000  0.05    0.54
Q6    1   0.2338 -0.1197 -0.2168  11.00000  0.05    0.54
Q7    1   0.2412 -0.0032  0.2183  11.00000  0.05    0.54
Q8    1   0.3244  0.3086  0.2601  11.00000  0.05    0.53
Q9    1   0.2065 -0.0634  0.3043  11.00000  0.05    0.53
Q10   1   0.2597  0.0456  0.1160  11.00000  0.05    0.53
Q11   1   0.2796  0.0956  0.0238  11.00000  0.05    0.52
Q12   1   0.2115 -0.1760 -0.1199  11.00000  0.05    0.52
Q13   1   0.2031 -0.2243 -0.0209  11.00000  0.05    0.50
Q14   1   0.2804  0.1457  0.2326  11.00000  0.05    0.47
Q15   1   0.2296  0.0469  0.4197  11.00000  0.05    0.45
Q16   1   0.1273 -0.4414 -0.3005  11.00000  0.05    0.44
Q17   1   0.1937 -0.1681  0.1879  11.00000  0.05    0.44
Q18   1   0.2750  0.0369 -0.1838  11.00000  0.05    0.44
Q19   1   0.2430 -0.0678 -0.0005  11.00000  0.05    0.44
Q20   1   0.3203  0.2490  0.0352  11.00000  0.05    0.43

  REM The information below was added by Olex2.
  REM
  REM R1 = 0.0557 for 6603 Fo > 4sig(Fo) and 0.0770 for all 9109 data
  REM n/a parameters refined using n/a restraints
  REM Highest difference peak 0.90, deepest hole -0.36
  REM Mean Shift 0, Max Shift 0.000.

  REM +++ Tabular Listing of Refinement Information +++
  REM R1_all = 0.0770
  REM R1_gt = 0.0557
  REM wR_ref = 0.1765
  REM GOOF = 1.050
  REM Shift_max = 0.000
  REM Shift_mean = 0
  REM Reflections_all = 9109
  REM Reflections_gt = 6603
  REM Parameters = n/a
  REM Hole = -0.36
  REM Peak = 0.90
  REM Flack = n/a

  
